245 5
10 10 10 10 10 

0 0 0 0 0 0 1 2 
0 0 0 0 0 0 3 3 11 12 
3 0 0 0 1 0 4 10 9 8 4 
4 0 0 0 2 0 1 5 
4 0 0 0 7 0 1 6 
7 0 0 0 3 0 1 7 
6 0 0 0 3 0 1 13 
8 0 0 0 2 0 1 13 
6 0 0 0 8 0 1 13 
4 0 0 0 8 0 1 13 
7 0 0 0 9 0 1 13 
10 0 0 0 7 0 1 13 
0 0 0 0 0 0 4 14 26 38 50 
0 0 0 0 0 0 3 15 17 19 
8 1 0 0 0 0 3 18 16 181 
8 5 0 0 0 0 2 21 20 
5 5 0 0 0 0 1 18 
9 7 0 0 0 0 1 20 
8 8 0 0 0 0 1 20 
7 7 0 0 0 0 2 24 22 
9 2 0 0 0 0 2 24 22 
4 5 0 0 0 0 1 23 
9 5 0 0 0 0 1 25 
9 5 0 0 0 0 1 25 
0 0 0 0 0 0 1 62 
0 0 0 0 0 0 4 27 28 35 36 
8 1 0 0 0 0 2 34 29 
7 10 0 0 0 0 2 33 31 
6 7 0 0 0 0 2 30 158 
7 4 0 0 0 0 1 31 
5 7 0 0 0 0 1 32 
10 6 0 0 0 0 1 37 
8 3 0 0 0 0 1 37 
6 5 0 0 0 0 1 37 
2 3 0 0 0 0 1 37 
1 4 0 0 0 0 1 37 
0 0 0 0 0 0 1 62 
0 0 0 0 0 0 1 39 
2 0 0 1 0 0 2 43 40 
3 0 0 5 0 0 2 42 41 
10 0 0 7 0 0 5 48 47 45 44 128 
10 0 0 8 0 0 4 48 47 45 44 
3 0 0 10 0 0 4 48 47 45 44 
4 0 0 5 0 0 1 46 
6 0 0 3 0 0 1 46 
5 0 0 4 0 0 1 49 
5 0 0 4 0 0 1 49 
9 0 0 3 0 0 1 49 
0 0 0 0 0 0 1 62 
0 0 0 0 0 0 2 51 52 
7 0 1 0 0 0 2 54 53 
2 0 6 0 0 0 2 55 54 
4 0 7 0 0 0 3 60 59 55 
7 0 6 0 0 0 5 60 59 58 57 134 
10 0 4 0 0 0 1 56 
9 0 3 0 0 0 2 58 57 
4 0 4 0 0 0 1 61 
7 0 9 0 0 0 1 61 
8 0 4 0 0 0 1 61 
9 0 6 0 0 0 1 61 
0 0 0 0 0 0 1 62 
0 0 0 0 0 0 5 63 75 87 99 111 
0 0 0 0 0 0 3 64 68 70 
8 0 0 0 1 0 2 67 65 
1 0 0 0 7 0 2 73 66 
10 0 0 0 7 0 1 69 
3 0 0 0 4 0 1 69 
8 0 0 0 5 0 1 69 
9 0 0 0 8 0 2 72 71 
9 0 0 0 5 0 1 73 
9 0 0 0 4 0 1 74 
7 0 0 0 5 0 1 74 
3 0 0 0 4 0 1 74 
0 0 0 0 0 0 1 123 
0 0 0 0 0 0 3 76 80 83 
7 0 0 0 1 0 2 78 77 
1 0 0 0 4 0 2 82 79 
3 0 0 0 4 0 2 82 79 
3 0 0 0 5 0 2 85 81 
4 0 0 0 6 0 2 82 81 
10 0 0 0 6 0 1 84 
10 0 0 0 3 0 1 84 
7 0 0 0 9 0 1 84 
2 0 0 0 7 0 1 86 
10 0 0 0 5 0 1 86 
0 0 0 0 0 0 1 123 
0 0 0 0 0 0 3 88 92 97 
4 0 1 0 0 0 2 94 89 
10 0 8 0 0 0 3 96 95 90 
3 0 6 0 0 0 1 91 
1 0 5 0 0 0 1 93 
9 0 7 0 0 0 1 94 
6 0 5 0 0 0 1 98 
9 0 4 0 0 0 1 98 
5 0 7 0 0 0 1 98 
7 0 4 0 0 0 1 98 
9 0 3 0 0 0 1 98 
0 0 0 0 0 0 1 123 
0 0 0 0 0 0 1 100 
9 0 0 0 0 1 3 103 102 101 
8 0 0 0 0 6 4 109 108 106 104 
4 0 0 0 0 7 2 109 104 
10 0 0 0 0 3 2 108 104 
1 0 0 0 0 7 1 105 
3 0 0 0 0 6 1 107 
2 0 0 0 0 2 1 107 
8 0 0 0 0 6 1 110 
2 0 0 0 0 7 1 110 
2 0 0 0 0 5 1 110 
0 0 0 0 0 0 1 123 
0 0 0 0 0 0 3 112 113 116 
9 1 0 0 0 0 2 118 114 
5 5 0 0 0 0 3 121 120 117 
6 5 0 0 0 0 2 120 115 
1 7 0 0 0 0 1 117 
6 8 0 0 0 0 1 117 
7 5 0 0 0 0 1 119 
4 6 0 0 0 0 1 119 
2 6 0 0 0 0 1 122 
10 3 0 0 0 0 1 122 
4 4 0 0 0 0 1 122 
0 0 0 0 0 0 1 123 
0 0 0 0 0 0 5 124 136 148 160 172 
0 0 0 0 0 0 4 125 129 130 134 
3 0 1 0 0 0 1 126 
8 0 5 0 0 0 2 132 127 
4 0 6 0 0 0 1 128 
9 0 6 0 0 0 1 131 
10 0 4 0 0 0 1 133 
2 0 4 0 0 0 1 132 
2 0 6 0 0 0 1 135 
4 0 5 0 0 0 1 135 
10 0 9 0 0 0 1 135 
9 0 4 0 0 0 1 135 
0 0 0 0 0 0 1 184 
0 0 0 0 0 0 2 137 139 
5 0 1 0 0 0 2 141 138 
4 0 6 0 0 0 3 146 143 140 
3 0 3 0 0 0 3 146 145 144 
7 0 8 0 0 0 2 144 142 
7 0 3 0 0 0 2 144 142 
8 0 3 0 0 0 1 145 
8 0 1 0 0 0 1 144 
3 0 7 0 0 0 1 147 
1 0 9 0 0 0 1 147 
2 0 9 0 0 0 1 147 
0 0 0 0 0 0 1 184 
0 0 0 0 0 0 3 149 151 152 
3 1 0 0 0 0 2 153 150 
9 6 0 0 0 0 2 157 154 
10 7 0 0 0 0 3 158 157 156 
8 8 0 0 0 0 1 153 
5 6 0 0 0 0 1 155 
7 2 0 0 0 0 1 155 
7 4 0 0 0 0 1 156 
7 4 0 0 0 0 1 159 
2 8 0 0 0 0 1 159 
3 4 0 0 0 0 1 159 
0 0 0 0 0 0 1 184 
0 0 0 0 0 0 3 161 164 167 
9 0 0 0 0 1 2 166 162 
2 0 0 0 0 6 2 170 163 
10 0 0 0 0 8 1 165 
1 0 0 0 0 2 1 165 
1 0 0 0 0 8 2 169 168 
3 0 0 0 0 1 2 169 168 
5 0 0 0 0 3 1 170 
2 0 0 0 0 9 1 171 
6 0 0 0 0 8 1 171 
7 0 0 0 0 4 1 171 
0 0 0 0 0 0 1 184 
0 0 0 0 0 0 4 173 174 175 176 
1 0 0 0 0 1 2 179 177 
9 0 0 0 0 3 2 179 177 
1 0 0 0 0 7 2 179 177 
8 0 0 0 0 7 1 177 
3 0 0 0 0 7 1 178 
3 0 0 0 0 1 2 182 180 
5 0 0 0 0 8 1 180 
6 0 0 0 0 5 1 181 
7 0 0 0 0 6 1 183 
6 0 0 0 0 5 1 183 
0 0 0 0 0 0 1 184 
0 0 0 0 0 0 5 185 197 209 221 233 
0 0 0 0 0 0 3 186 188 195 
7 0 1 0 0 0 2 194 187 
8 0 6 0 0 0 1 189 
9 0 9 0 0 0 3 193 192 191 
1 0 5 0 0 0 1 190 
5 0 3 0 0 0 2 192 191 
1 0 6 0 0 0 1 196 
4 0 2 0 0 0 1 196 
3 0 7 0 0 0 1 196 
2 0 6 0 0 0 1 196 
9 0 5 0 0 0 1 196 
0 0 0 0 0 0 1 245 
0 0 0 0 0 0 3 198 199 200 
8 0 0 1 0 0 3 207 204 201 
5 0 0 6 0 0 3 206 204 202 
1 0 0 2 0 0 1 201 
2 0 0 7 0 0 2 206 202 
2 0 0 5 0 0 1 203 
4 0 0 5 0 0 1 205 
3 0 0 5 0 0 1 205 
7 0 0 7 0 0 1 208 
6 0 0 6 0 0 1 208 
9 0 0 6 0 0 1 208 
0 0 0 0 0 0 1 245 
0 0 0 0 0 0 1 210 
2 0 0 0 1 0 2 212 211 
1 0 0 0 4 0 3 216 214 213 
1 0 0 0 5 0 1 213 
5 0 0 0 4 0 2 219 215 
10 0 0 0 3 0 2 219 215 
1 0 0 0 6 0 2 218 217 
6 0 0 0 10 0 2 218 217 
2 0 0 0 5 0 1 220 
4 0 0 0 7 0 1 220 
1 0 0 0 5 0 1 220 
0 0 0 0 0 0 1 245 
0 0 0 0 0 0 3 222 226 231 
5 0 0 0 1 0 3 230 224 223 
4 0 0 0 3 0 2 229 227 
6 0 0 0 6 0 1 225 
5 0 0 0 7 0 1 227 
5 0 0 0 7 0 1 227 
10 0 0 0 3 0 1 228 
3 0 0 0 6 0 1 232 
1 0 0 0 7 0 1 232 
5 0 0 0 4 0 1 232 
1 0 0 0 6 0 1 232 
0 0 0 0 0 0 1 245 
0 0 0 0 0 0 4 234 238 242 243 
4 0 0 0 1 0 1 235 
9 0 0 0 1 0 2 241 236 
10 0 0 0 10 0 2 239 237 
6 0 0 0 7 0 1 240 
8 0 0 0 7 0 1 239 
9 0 0 0 5 0 1 244 
5 0 0 0 2 0 1 244 
4 0 0 0 5 0 1 244 
8 0 0 0 2 0 1 244 
7 0 0 0 10 0 1 244 
0 0 0 0 0 0 1 245 
0 0 0 0 0 0 0 
